# 33411
param n := 25;
param s := 1;
set E :=  (0,4) (0,15) (0,21) (0,23) (1,8) (1,14) (1,17) (1,18) (2,10) (2,22) (3,10) (4,6) (4,18) (4,19) (5,6) (5,12) (5,18) (6,23) (7,20) (8,10) (8,20) (9,18) (10,16) (10,21) (10,23) (11,14) (11,16) (11,20) (13,19) (13,21) (13,23) (16,24) (17,19);
